days 3
classrooms 40 30 90
0002 0003
0001 0005
0001 0005
0001 0004
0006 0004
0006 0004
0006 0004
0006 0004
0006 0004
0001 0005
0001 0004
0006 0004
0001 0003
0002 0003
0002 0003
0001 0003
0001 0004
0001 0005
0006 0004
0002 0003
0006 0004
0001 0005
0001 0005
0006 0004
0002 0003
0001 0000
0001 0000
0001 0005
0006 0004
0006 0004
0006 0004
0002 0003
0001 0003
0001 0003
0001 0000
0001 0004
0006 0004
0001 0005
0002 0003
0001 0003
0006 0004
0001 0005
0001 0004
0001 0005
0001 0003
0001 0000
0001 0004
0001 0000
0002 0003
0001 0000
0001 0004
0001 0000
0001 0003
0001 0000
0001 0003
0001 0004
0001 0000
0002 0003
0002 0003
0001 0003
0006 0004
0001 0000
0006 0004
0001 0004
0001 0005
0001 0000
0001 0000
0002 0003
0001 0004
0006 0004
0002 0003
0001 0000
0001 0005
0002 0003
0001 0000
0001 0004
0001 0005
0002 0003
0002 0003
0002 0003
0006 0004
0001 0003
0006 0004
0002 0003
0001 0000
0002 0003
0001 0003
0001 0003
0001 0005
0001 0005
0006 0004
0001 0003
0002 0003
0001 0005
0001 0005
0001 0004
0002 0003
0006 0004
0001 0005
0006 0004
0001 0005
0001 0003
0001 0003
0001 0003
0001 0004
0001 0004
0002 0003
0006 0004
0001 0000
0001 0005
0001 0003
0002 0003
0006 0004
0001 0005
0001 0005
0001 0005
0006 0004
0006 0004
0001 0005
0001 0000
0001 0000
0006 0004
0001 0003
0006 0004
0006 0004
0002 0003
0001 0004
0001 0004
0002 0003
0002 0003
0001 0005
0001 0005
0002 0003
0006 0004
0002 0003
0002 0003
0002 0003
0001 0000
0001 0005
0001 0000
0001 0005
0001 0000
0001 0005
0006 0004
0001 0003
